NAME : n40w140.005.438.tour
COMMENT : Length = 438
COMMENT : Found by LKH [Keld Helsgaun] Tue May  2 05:47:17 2017
TYPE : TOUR
DIMENSION : 41
TOUR_SECTION
1
25
12
30
27
22
7
33
37
14
24
34
5
3
16
8
38
6
21
36
40
32
18
9
11
35
17
29
39
19
4
20
2
26
28
23
31
15
10
41
13
-1
EOF
